Route #1: 43 11 4 17 28 25 44 15 19 26 31
Route #2: 30 24 10 39 13 23 34 42 48
Route #3: 36 5 38 12 21 9 6 37 46 22
Route #4: 16 41 50 35 45 49 3 33 7
Route #5: 32 40 27 14 47
Route #6: 20 18 29 8
Route #7: 2
cost 815
